620,21
639,140
718,292
822,600
994,305
609,354
681,646
385,110
411,406
681,-14
1045,142
888,438
681,-134
844,86
685,377
782,93
751,850
339,295
945,42
501,406
597,490
491,596
705,389
470,115
536,301
617,207
227,175
